
Gurobi 10.0.1 (win64) logging started Sun Aug 27 19:51:46 2023

Set parameter LogFile to value "results//log/Fattahi_setup_11_modified_old_deadline.log"
Gurobi Optimizer version 10.0.1 build v10.0.1rc0 (win64)

CPU model: AMD Ryzen 7 3700X 8-Core Processor, instruction set [SSE2|AVX|AVX2]
Thread count: 8 physical cores, 16 logical processors, using up to 16 threads

Optimize a model with 289 rows, 303 columns and 1107 nonzeros
Model fingerprint: 0xee5b0a47
Model has 1 quadratic constraint
Variable types: 33 continuous, 270 integer (269 binary)
Coefficient statistics:
  Matrix range     [1e+00, 1e+06]
  QMatrix range    [1e+00, 1e+00]
  QLMatrix range   [1e+00, 4e+02]
  Objective range  [1e+00, 1e+00]
  Bounds range     [1e+00, 1e+00]
  RHS range        [1e+00, 3e+06]
Presolve removed 47 rows and 175 columns
Presolve time: 0.00s
Presolved: 255 rows, 139 columns, 1080 nonzeros
Variable types: 44 continuous, 95 integer (94 binary)
Found heuristic solution: objective 7366.0000000
Found heuristic solution: objective 6481.0000000
Found heuristic solution: objective 4459.0000000

Root relaxation: objective 0.000000e+00, 42 iterations, 0.00 seconds (0.00 work units)

    Nodes    |    Current Node    |     Objective Bounds      |     Work
 Expl Unexpl |  Obj  Depth IntInf | Incumbent    BestBd   Gap | It/Node Time

     0     0    0.00000    0   10 4459.00000    0.00000   100%     -    0s
     0     0    0.00000    0    6 4459.00000    0.00000   100%     -    0s
H    0     0                    4458.0000000    0.00000   100%     -    0s
H    0     0                    4456.0000000    0.00000   100%     -    0s
     0     0    0.00000    0   19 4456.00000    0.00000   100%     -    0s
H    0     0                    4455.0000000    0.00000   100%     -    0s
H    0     0                    4400.0000000    0.00000   100%     -    0s
     0     0    0.00000    0   17 4400.00000    0.00000   100%     -    0s
     0     0    0.00000    0   19 4400.00000    0.00000   100%     -    0s
     0     0  822.65403    0   23 4400.00000  822.65403  81.3%     -    0s
     0     0 1360.97929    0   21 4400.00000 1360.97929  69.1%     -    0s
H    0     0                    3974.0000000 1360.97929  65.8%     -    0s
     0     0 1615.07362    0   26 3974.00000 1615.07362  59.4%     -    0s
     0     0 1616.30282    0   25 3974.00000 1616.30282  59.3%     -    0s
     0     0 1617.80009    0   26 3974.00000 1617.80009  59.3%     -    0s
H    0     0                    3618.0000000 1617.80009  55.3%     -    0s
     0     0 1618.23762    0   27 3618.00000 1618.23762  55.3%     -    0s
     0     0 1620.89975    0   23 3618.00000 1620.89975  55.2%     -    0s
     0     0 1629.95454    0   31 3618.00000 1629.95454  54.9%     -    0s
     0     0 1639.32217    0   30 3618.00000 1639.32217  54.7%     -    0s
     0     0 1639.32217    0   23 3618.00000 1639.32217  54.7%     -    0s
     0     1 1639.32217    0   22 3618.00000 1639.32217  54.7%     -    0s
H   31    27                    3441.0000000 1697.00000  50.7%  12.7    0s
H  304   163                    3360.0000000 1698.75009  49.4%   7.3    0s
* 2793   929              26    3271.0000000 1836.59429  43.9%   5.2    0s
* 2794   911              26    3233.0000000 1836.59429  43.2%   5.2    0s
H 4031  1141                    3202.0000000 1888.38786  41.0%   5.1    0s

Cutting planes:
  Learned: 1
  Cover: 2
  Projected implied bound: 2
  MIR: 4
  Flow cover: 1
  Inf proof: 1
  RLT: 1
  Relax-and-lift: 1

Explored 28386 nodes (135389 simplex iterations) in 1.42 seconds (0.79 work units)
Thread count was 16 (of 16 available processors)

Solution count 10: 3202 3202 3233 ... 4455

Optimal solution found (tolerance 1.00e-04)
Best objective 3.202000000000e+03, best bound 3.202000000000e+03, gap 0.0000%
Warning: constraint name "precedence between 0,1 to 0,0 if x_[j,l,h,z,i]=1" has a space
Warning: constraint name "precedence between 0,1 to 0,0 if x_[j,l,h,z,i]=1" has a space
Warning: default constraint names used to write mps file
